(set-info :smt-lib-version 2.6)
(set-logic QF_NIA)
(set-info :source |AProve team, see http://aprove.informatik.rwth-aachen.de/, submitted for SMT-COMP 2014|)
(set-info :category "industrial")
(set-info :status sat)
(declare-fun a__4 () Int)
(declare-fun a__2 () Int)
(declare-fun a__8 () Int)
(declare-fun a__12 () Int)
(declare-fun a__16 () Int)
(declare-fun a__20 () Int)
(declare-fun a__23 () Int)
(declare-fun a__25 () Int)
(declare-fun a__29 () Int)
(declare-fun a__33 () Int)
(declare-fun a__36 () Int)
(declare-fun a__38 () Int)
(declare-fun a__42 () Int)
(declare-fun a__45 () Int)
(declare-fun a__47 () Int)
(declare-fun a__51 () Int)
(declare-fun a__53 () Int)
(declare-fun a__55 () Int)
(declare-fun a__56 () Int)
(declare-fun a__58 () Int)
(declare-fun a__60 () Int)
(declare-fun a__62 () Int)
(declare-fun a__64 () Int)
(declare-fun a__67 () Int)
(declare-fun a__69 () Int)
(declare-fun a__72 () Int)
(declare-fun a__75 () Int)
(declare-fun a__77 () Int)
(declare-fun a__80 () Int)
(declare-fun a__83 () Int)
(declare-fun a__85 () Int)
(declare-fun a__89 () Int)
(declare-fun a__93 () Int)
(declare-fun a__97 () Int)
(declare-fun a__101 () Int)
(declare-fun a__104 () Int)
(declare-fun a__106 () Int)
(declare-fun a__110 () Int)
(declare-fun a__114 () Int)
(declare-fun a__116 () Int)
(declare-fun a__120 () Int)
(declare-fun a__122 () Int)
(declare-fun a__125 () Int)
(declare-fun a__128 () Int)
(declare-fun a__130 () Int)
(declare-fun a__134 () Int)
(declare-fun a__138 () Int)
(declare-fun a__142 () Int)
(declare-fun a__146 () Int)
(declare-fun a__149 () Int)
(declare-fun a__151 () Int)
(declare-fun a__155 () Int)
(declare-fun a__159 () Int)
(declare-fun a__163 () Int)
(declare-fun a__167 () Int)
(declare-fun a__170 () Int)
(declare-fun a__172 () Int)
(declare-fun a__175 () Int)
(declare-fun a__177 () Int)
(declare-fun a__180 () Int)
(declare-fun a__182 () Int)
(declare-fun a__185 () Int)
(declare-fun a__188 () Int)
(declare-fun a__191 () Int)
(declare-fun a__193 () Int)
(declare-fun a__195 () Int)
(declare-fun a__199 () Int)
(declare-fun a__203 () Int)
(declare-fun a__207 () Int)
(declare-fun a__211 () Int)
(declare-fun a__213 () Int)
(declare-fun a__214 () Int)
(declare-fun a__216 () Int)
(declare-fun a__220 () Int)
(declare-fun a__223 () Int)
(declare-fun a__226 () Int)
(declare-fun a__229 () Int)
(declare-fun a__233 () Int)
(declare-fun a__237 () Int)
(declare-fun a__240 () Int)
(declare-fun a__243 () Int)
(declare-fun a__244 () Int)
(declare-fun a__246 () Int)
(declare-fun a__250 () Int)
(declare-fun a__255 () Int)
(declare-fun a__260 () Int)
(declare-fun a__265 () Int)
(declare-fun a__270 () Int)
(declare-fun a__275 () Int)
(declare-fun a__280 () Int)
(declare-fun a__283 () Int)
(declare-fun a__286 () Int)
(declare-fun a__290 () Int)
(declare-fun a__293 () Int)
(declare-fun a__296 () Int)
(declare-fun a__299 () Int)
(declare-fun a__303 () Int)
(declare-fun a__307 () Int)
(declare-fun a__311 () Int)
(declare-fun a__315 () Int)
(declare-fun a__317 () Int)
(declare-fun a__321 () Int)
(declare-fun a__325 () Int)
(declare-fun a__329 () Int)
(declare-fun a__333 () Int)
(declare-fun a__336 () Int)
(declare-fun a__338 () Int)
(declare-fun a__342 () Int)
(declare-fun a__346 () Int)
(declare-fun a__350 () Int)
(declare-fun a__354 () Int)
(declare-fun a__357 () Int)
(declare-fun a__359 () Int)
(declare-fun a__362 () Int)
(declare-fun a__365 () Int)
(declare-fun a__367 () Int)
(declare-fun a__370 () Int)
(declare-fun a__373 () Int)
(declare-fun a__375 () Int)
(declare-fun a__378 () Int)
(declare-fun a__381 () Int)
(declare-fun a__383 () Int)
(declare-fun a__386 () Int)
(declare-fun a__3 () Int)
(declare-fun a__7 () Int)
(declare-fun a__11 () Int)
(declare-fun a__15 () Int)
(declare-fun a__19 () Int)
(declare-fun a__22 () Int)
(declare-fun a__24 () Int)
(declare-fun a__28 () Int)
(declare-fun a__32 () Int)
(declare-fun a__35 () Int)
(declare-fun a__37 () Int)
(declare-fun a__41 () Int)
(declare-fun a__44 () Int)
(declare-fun a__46 () Int)
(declare-fun a__50 () Int)
(declare-fun a__52 () Int)
(declare-fun a__54 () Int)
(declare-fun a__57 () Int)
(declare-fun a__59 () Int)
(declare-fun a__61 () Int)
(declare-fun a__63 () Int)
(declare-fun a__66 () Int)
(declare-fun a__68 () Int)
(declare-fun a__71 () Int)
(declare-fun a__74 () Int)
(declare-fun a__76 () Int)
(declare-fun a__79 () Int)
(declare-fun a__82 () Int)
(declare-fun a__84 () Int)
(declare-fun a__88 () Int)
(declare-fun a__92 () Int)
(declare-fun a__96 () Int)
(declare-fun a__100 () Int)
(declare-fun a__103 () Int)
(declare-fun a__105 () Int)
(declare-fun a__109 () Int)
(declare-fun a__113 () Int)
(declare-fun a__115 () Int)
(declare-fun a__119 () Int)
(declare-fun a__121 () Int)
(declare-fun a__124 () Int)
(declare-fun a__127 () Int)
(declare-fun a__129 () Int)
(declare-fun a__133 () Int)
(declare-fun a__137 () Int)
(declare-fun a__141 () Int)
(declare-fun a__145 () Int)
(declare-fun a__148 () Int)
(declare-fun a__150 () Int)
(declare-fun a__154 () Int)
(declare-fun a__158 () Int)
(declare-fun a__162 () Int)
(declare-fun a__166 () Int)
(declare-fun a__169 () Int)
(declare-fun a__171 () Int)
(declare-fun a__174 () Int)
(declare-fun a__176 () Int)
(declare-fun a__179 () Int)
(declare-fun a__181 () Int)
(declare-fun a__184 () Int)
(declare-fun a__187 () Int)
(declare-fun a__190 () Int)
(declare-fun a__192 () Int)
(declare-fun a__194 () Int)
(declare-fun a__198 () Int)
(declare-fun a__202 () Int)
(declare-fun a__206 () Int)
(declare-fun a__210 () Int)
(declare-fun a__212 () Int)
(declare-fun a__215 () Int)
(declare-fun a__219 () Int)
(declare-fun a__222 () Int)
(declare-fun a__225 () Int)
(declare-fun a__228 () Int)
(declare-fun a__232 () Int)
(declare-fun a__236 () Int)
(declare-fun a__239 () Int)
(declare-fun a__242 () Int)
(declare-fun a__245 () Int)
(declare-fun a__249 () Int)
(declare-fun a__254 () Int)
(declare-fun a__259 () Int)
(declare-fun a__264 () Int)
(declare-fun a__269 () Int)
(declare-fun a__274 () Int)
(declare-fun a__279 () Int)
(declare-fun a__282 () Int)
(declare-fun a__285 () Int)
(declare-fun a__289 () Int)
(declare-fun a__292 () Int)
(declare-fun a__295 () Int)
(declare-fun a__298 () Int)
(declare-fun a__302 () Int)
(declare-fun a__306 () Int)
(declare-fun a__310 () Int)
(declare-fun a__314 () Int)
(declare-fun a__316 () Int)
(declare-fun a__320 () Int)
(declare-fun a__324 () Int)
(declare-fun a__328 () Int)
(declare-fun a__332 () Int)
(declare-fun a__335 () Int)
(declare-fun a__337 () Int)
(declare-fun a__341 () Int)
(declare-fun a__345 () Int)
(declare-fun a__349 () Int)
(declare-fun a__353 () Int)
(declare-fun a__356 () Int)
(declare-fun a__358 () Int)
(declare-fun a__361 () Int)
(declare-fun a__364 () Int)
(declare-fun a__366 () Int)
(declare-fun a__369 () Int)
(declare-fun a__372 () Int)
(declare-fun a__374 () Int)
(declare-fun a__377 () Int)
(declare-fun a__380 () Int)
(declare-fun a__382 () Int)
(declare-fun a__385 () Int)
(assert (and (>= (+ (* a__4 a__2) (* (- 0 1) a__2)) 0) (>= (+ (* a__8 a__2) (* (- 0 1) a__2)) 0) (>= (+ (* a__12 a__2) (* (- 0 1) a__2)) 0) (>= (+ (* a__16 a__2) (* (- 0 1) a__2)) 0) (>= (+ (* a__20 a__2) (* (- 0 1) a__2)) 0) (>= (+ (* a__23 a__2) (* (- 0 1) a__2)) 0) (>= (+ (* a__25 a__2) (* (- 0 1) a__2)) 0) (>= (+ (* a__29 a__2) (* (- 0 1) a__2)) 0) (>= (+ (* a__33 a__2) (* (- 0 1) a__2)) 0) (>= (+ (* a__36 a__2) (* (- 0 1) a__2)) 0) (>= (+ (* a__38 a__2) (* (- 0 1) a__2)) 0) (>= (+ (* a__42 a__2) (* (- 0 1) a__2)) 0) (>= (+ (* a__45 a__2) (* (- 0 1) a__2)) 0) (>= (+ (* a__47 a__2) (* (- 0 1) a__2)) 0) (>= (+ (* a__51 a__2) (* (- 0 1) a__2)) 0) (>= (+ (* a__53 a__2) (* (- 0 1) a__2)) 0) (>= (+ (* a__55 a__2) (* (- 0 1) a__2)) 0) (>= (+ (* a__56 a__2) (* (- 0 1) a__2)) 0) (>= (+ (* a__58 a__2) (* (- 0 1) a__2)) 0) (>= (+ (* a__60 a__2) (* (- 0 1) a__2)) 0) (>= (+ (* a__62 a__2) (* (- 0 1) a__2)) 0) (>= (+ (* a__64 a__2) (* (- 0 1) a__2)) 0) (>= (+ (* a__67 a__2) (* (- 0 1) a__2)) 0) (>= (+ (* a__69 a__2) (* (- 0 1) a__2)) 0) (>= (+ (* a__72 a__2) (* (- 0 1) a__2)) 0) (>= (+ (* a__75 a__2) (* (- 0 1) a__2)) 0) (>= (+ (* a__77 a__2) (* (- 0 1) a__2)) 0) (>= (+ (* a__80 a__2) (* (- 0 1) a__2)) 0) (>= (+ (* a__83 a__2) (* (- 0 1) a__2)) 0) (>= (+ (* a__85 a__2) (* (- 0 1) a__2)) 0) (>= (+ (* a__89 a__2) (* (- 0 1) a__2)) 0) (>= (+ (* a__93 a__2) (* (- 0 1) a__2)) 0) (>= (+ (* a__97 a__2) (* (- 0 1) a__2)) 0) (>= (+ (* a__101 a__2) (* (- 0 1) a__2)) 0) (>= (+ (* a__104 a__2) (* (- 0 1) a__2)) 0) (>= (+ (* a__106 a__2) (* (- 0 1) a__2)) 0) (>= (+ (* a__110 a__2) (* (- 0 1) a__2)) 0) (>= (+ (* a__114 a__2) (* (- 0 1) a__2)) 0) (>= (+ (* a__116 a__2) (* (- 0 1) a__2)) 0) (>= (+ (* a__120 a__2) (* (- 0 1) a__2)) 0) (>= (+ (* a__122 a__2) (* (- 0 1) a__2)) 0) (>= (+ (* a__125 a__2) (* (- 0 1) a__2)) 0) (>= (+ (* a__128 a__2) (* (- 0 1) a__2)) 0) (>= (+ (* a__130 a__2) (* (- 0 1) a__2)) 0) (>= (+ (* a__134 a__2) (* (- 0 1) a__2)) 0) (>= (+ (* a__138 a__2) (* (- 0 1) a__2)) 0) (>= (+ (* a__142 a__2) (* (- 0 1) a__2)) 0) (>= (+ (* a__146 a__2) (* (- 0 1) a__2)) 0) (>= (+ (* a__149 a__2) (* (- 0 1) a__2)) 0) (>= (+ (* a__151 a__2) (* (- 0 1) a__2)) 0) (>= (+ (* a__155 a__2) (* (- 0 1) a__2)) 0) (>= (+ (* a__159 a__2) (* (- 0 1) a__2)) 0) (>= (+ (* a__163 a__2) (* (- 0 1) a__2)) 0) (>= (+ (* a__167 a__2) (* (- 0 1) a__2)) 0) (>= (+ (* a__170 a__2) (* (- 0 1) a__2)) 0) (>= (+ (* a__172 a__2) (* (- 0 1) a__2)) 0) (>= (+ (* a__175 a__2) (* (- 0 1) a__2)) 0) (>= (+ (* a__177 a__2) (* (- 0 1) a__2)) 0) (>= (+ (* a__180 a__2) (* (- 0 1) a__2)) 0) (>= (+ (* a__182 a__2) (* (- 0 1) a__2)) 0) (>= (+ (* a__185 a__2) (* (- 0 1) a__2)) 0) (>= (+ (* a__188 a__2) (* (- 0 1) a__2)) 0) (>= (+ (* a__191 a__2) (* (- 0 1) a__2)) 0) (>= (+ (* a__193 a__2) (* (- 0 1) a__2)) 0) (>= (+ (* a__195 a__2) (* (- 0 1) a__2)) 0) (>= (+ (* a__199 a__2) (* (- 0 1) a__2)) 0) (>= (+ (* a__203 a__2) (* (- 0 1) a__2)) 0) (>= (+ (* a__207 a__2) (* (- 0 1) a__2)) 0) (>= (+ (* a__211 a__2) (* (- 0 1) a__2)) 0) (>= (+ (* a__213 a__2) (* (- 0 1) a__2)) 0) (>= (+ (* a__214 a__2) (* (- 0 1) a__2)) 0) (>= (+ (* a__216 a__2) (* (- 0 1) a__2)) 0) (>= (+ (* a__220 a__2) (* (- 0 1) a__2)) 0) (>= (+ (* a__223 a__2) (* (- 0 1) a__2)) 0) (>= (+ (* a__226 a__2) (* (- 0 1) a__2)) 0) (>= (+ (* a__229 a__2) (* (- 0 1) a__2)) 0) (>= (+ (* a__233 a__2) (* (- 0 1) a__2)) 0) (>= (+ (* a__237 a__2) (* (- 0 1) a__2)) 0) (>= (+ (* a__240 a__2) (* (- 0 1) a__2)) 0) (>= (+ (* a__243 a__2) (* (- 0 1) a__2)) 0) (>= (+ (* a__244 a__2) (* (- 0 1) a__2)) 0) (>= (+ (* a__246 a__2) (* (- 0 1) a__2)) 0) (>= (+ (* a__250 a__2) (* (- 0 1) a__2)) 0) (>= (+ (* a__255 a__2) (* (- 0 1) a__2)) 0) (>= (+ (* a__260 a__2) (* (- 0 1) a__2)) 0) (>= (+ (* a__265 a__2) (* (- 0 1) a__2)) 0) (>= (+ (* a__270 a__2) (* (- 0 1) a__2)) 0) (>= (+ (* a__275 a__2) (* (- 0 1) a__2)) 0) (>= (+ (* a__280 a__2) (* (- 0 1) a__2)) 0) (>= (+ (* a__283 a__2) (* (- 0 1) a__2)) 0) (>= (+ (* a__286 a__2) (* (- 0 1) a__2)) 0) (>= (+ (* a__290 a__2) (* (- 0 1) a__2)) 0) (>= (+ (* a__293 a__2) (* (- 0 1) a__2)) 0) (>= (+ (* a__296 a__2) (* (- 0 1) a__2)) 0) (>= (+ (* a__299 a__2) (* (- 0 1) a__2)) 0) (>= (+ (* a__303 a__2) (* (- 0 1) a__2)) 0) (>= (+ (* a__307 a__2) (* (- 0 1) a__2)) 0) (>= (+ (* a__311 a__2) (* (- 0 1) a__2)) 0) (>= (+ (* a__315 a__2) (* (- 0 1) a__2)) 0) (>= (+ (* a__317 a__2) (* (- 0 1) a__2)) 0) (>= (+ (* a__321 a__2) (* (- 0 1) a__2)) 0) (>= (+ (* a__325 a__2) (* (- 0 1) a__2)) 0) (>= (+ (* a__329 a__2) (* (- 0 1) a__2)) 0) (>= (+ (* a__333 a__2) (* (- 0 1) a__2)) 0) (>= (+ (* a__336 a__2) (* (- 0 1) a__2)) 0) (>= (+ (* a__338 a__2) (* (- 0 1) a__2)) 0) (>= (+ (* a__342 a__2) (* (- 0 1) a__2)) 0) (>= (+ (* a__346 a__2) (* (- 0 1) a__2)) 0) (>= (+ (* a__350 a__2) (* (- 0 1) a__2)) 0) (>= (+ (* a__354 a__2) (* (- 0 1) a__2)) 0) (>= (+ (* a__357 a__2) (* (- 0 1) a__2)) 0) (>= (+ (* a__359 a__2) (* (- 0 1) a__2)) 0) (>= (+ (* a__362 a__2) (* (- 0 1) a__2)) 0) (>= (+ (* a__365 a__2) (* (- 0 1) a__2)) 0) (>= (+ (* a__367 a__2) (* (- 0 1) a__2)) 0) (>= (+ (* a__370 a__2) (* (- 0 1) a__2)) 0) (>= (+ (* a__373 a__2) (* (- 0 1) a__2)) 0) (>= (+ (* a__375 a__2) (* (- 0 1) a__2)) 0) (>= (+ (* a__378 a__2) (* (- 0 1) a__2)) 0) (>= (+ (* a__381 a__2) (* (- 0 1) a__2)) 0) (>= (+ (* a__383 a__2) (* (- 0 1) a__2)) 0) (>= (+ (* a__386 a__2) (* (- 0 1) a__2)) 0) (>= (* a__3 a__2) 0) (>= (* a__7 a__2) 0) (>= (* a__11 a__2) 0) (>= (* a__15 a__2) 0) (>= (* a__19 a__2) 0) (>= (* a__22 a__2) 0) (>= (* a__24 a__2) 0) (>= (* a__28 a__2) 0) (>= (* a__32 a__2) 0) (>= (* a__35 a__2) 0) (>= (* a__37 a__2) 0) (>= (* a__41 a__2) 0) (>= (* a__44 a__2) 0) (>= (* a__46 a__2) 0) (>= (* a__50 a__2) 0) (>= (* a__52 a__2) 0) (>= (* a__54 a__2) 0) (>= (* a__57 a__2) 0) (>= (* a__59 a__2) 0) (>= (* a__61 a__2) 0) (>= (* a__63 a__2) 0) (>= (* a__66 a__2) 0) (>= (* a__68 a__2) 0) (>= (* a__71 a__2) 0) (>= (* a__74 a__2) 0) (>= (* a__76 a__2) 0) (>= (* a__79 a__2) 0) (>= (* a__82 a__2) 0) (>= (* a__84 a__2) 0) (>= (* a__88 a__2) 0) (>= (* a__92 a__2) 0) (>= (* a__96 a__2) 0) (>= (* a__100 a__2) 0) (>= (* a__103 a__2) 0) (>= (* a__105 a__2) 0) (>= (* a__109 a__2) 0) (>= (* a__113 a__2) 0) (>= (* a__115 a__2) 0) (>= (* a__119 a__2) 0) (>= (* a__121 a__2) 0) (>= (* a__124 a__2) 0) (>= (* a__127 a__2) 0) (>= (* a__129 a__2) 0) (>= (* a__133 a__2) 0) (>= (* a__137 a__2) 0) (>= (* a__141 a__2) 0) (>= (* a__145 a__2) 0) (>= (* a__148 a__2) 0) (>= (* a__150 a__2) 0) (>= (* a__154 a__2) 0) (>= (* a__158 a__2) 0) (>= (* a__162 a__2) 0) (>= (* a__166 a__2) 0) (>= (* a__169 a__2) 0) (>= (* a__171 a__2) 0) (>= (* a__174 a__2) 0) (>= (* a__176 a__2) 0) (>= (* a__179 a__2) 0) (>= (* a__181 a__2) 0) (>= (* a__184 a__2) 0) (>= (* a__187 a__2) 0) (>= (* a__190 a__2) 0) (>= (* a__192 a__2) 0) (>= (* a__194 a__2) 0) (>= (* a__198 a__2) 0) (>= (* a__202 a__2) 0) (>= (* a__206 a__2) 0) (>= (* a__210 a__2) 0) (>= (* a__212 a__2) 0) (>= (* a__215 a__2) 0) (>= (* a__219 a__2) 0) (>= (* a__222 a__2) 0) (>= (* a__225 a__2) 0) (>= (* a__228 a__2) 0) (>= (* a__232 a__2) 0) (>= (* a__236 a__2) 0) (>= (* a__239 a__2) 0) (>= (* a__242 a__2) 0) (>= (* a__245 a__2) 0) (>= (* a__249 a__2) 0) (>= (* a__254 a__2) 0) (>= (* a__259 a__2) 0) (>= (* a__264 a__2) 0) (>= (* a__269 a__2) 0) (>= (* a__274 a__2) 0) (>= (* a__279 a__2) 0) (>= (* a__282 a__2) 0) (>= (* a__285 a__2) 0) (>= (* a__289 a__2) 0) (>= (* a__292 a__2) 0) (>= (* a__295 a__2) 0) (>= (* a__298 a__2) 0) (>= (* a__302 a__2) 0) (>= (* a__306 a__2) 0) (>= (* a__310 a__2) 0) (>= (* a__314 a__2) 0) (>= (* a__316 a__2) 0) (>= (* a__320 a__2) 0) (>= (* a__324 a__2) 0) (>= (* a__328 a__2) 0) (>= (* a__332 a__2) 0) (>= (* a__335 a__2) 0) (>= (* a__337 a__2) 0) (>= (* a__341 a__2) 0) (>= (* a__345 a__2) 0) (>= (* a__349 a__2) 0) (>= (* a__353 a__2) 0) (>= (* a__356 a__2) 0) (>= (* a__358 a__2) 0) (>= (* a__361 a__2) 0) (>= (* a__364 a__2) 0) (>= (* a__366 a__2) 0) (>= (* a__369 a__2) 0) (>= (* a__372 a__2) 0) (>= (* a__374 a__2) 0) (>= (* a__377 a__2) 0) (>= (* a__380 a__2) 0) (>= (* a__382 a__2) 0) (>= (* a__385 a__2) 0) (not (and (= (* a__3 a__2) 0) (= (* a__7 a__2) 0) (= (* a__11 a__2) 0) (= (* a__15 a__2) 0) (= (* a__19 a__2) 0) (= (* a__22 a__2) 0) (= (* a__24 a__2) 0) (= (* a__28 a__2) 0) (= (* a__32 a__2) 0) (= (* a__35 a__2) 0) (= (* a__37 a__2) 0) (= (* a__41 a__2) 0) (= (* a__44 a__2) 0) (= (* a__46 a__2) 0) (= (* a__50 a__2) 0) (= (* a__52 a__2) 0) (= (* a__54 a__2) 0) (= (* a__57 a__2) 0) (= (* a__59 a__2) 0) (= (* a__61 a__2) 0) (= (* a__63 a__2) 0) (= (* a__66 a__2) 0) (= (* a__68 a__2) 0) (= (* a__71 a__2) 0) (= (* a__74 a__2) 0) (= (* a__76 a__2) 0) (= (* a__79 a__2) 0) (= (* a__82 a__2) 0) (= (* a__84 a__2) 0) (= (* a__88 a__2) 0) (= (* a__92 a__2) 0) (= (* a__96 a__2) 0) (= (* a__100 a__2) 0) (= (* a__103 a__2) 0) (= (* a__105 a__2) 0) (= (* a__109 a__2) 0) (= (* a__113 a__2) 0) (= (* a__115 a__2) 0) (= (* a__119 a__2) 0) (= (* a__121 a__2) 0) (= (* a__124 a__2) 0) (= (* a__127 a__2) 0) (= (* a__129 a__2) 0) (= (* a__133 a__2) 0) (= (* a__137 a__2) 0) (= (* a__141 a__2) 0) (= (* a__145 a__2) 0) (= (* a__148 a__2) 0) (= (* a__150 a__2) 0) (= (* a__154 a__2) 0) (= (* a__158 a__2) 0) (= (* a__162 a__2) 0) (= (* a__166 a__2) 0) (= (* a__169 a__2) 0) (= (* a__171 a__2) 0) (= (* a__174 a__2) 0) (= (* a__176 a__2) 0) (= (* a__179 a__2) 0) (= (* a__181 a__2) 0) (= (* a__184 a__2) 0) (= (* a__187 a__2) 0) (= (* a__190 a__2) 0) (= (* a__192 a__2) 0) (= (* a__194 a__2) 0) (= (* a__198 a__2) 0) (= (* a__202 a__2) 0) (= (* a__206 a__2) 0) (= (* a__210 a__2) 0) (= (* a__212 a__2) 0) (= (* a__215 a__2) 0) (= (* a__219 a__2) 0) (= (* a__222 a__2) 0) (= (* a__225 a__2) 0) (= (* a__228 a__2) 0) (= (* a__232 a__2) 0) (= (* a__236 a__2) 0) (= (* a__239 a__2) 0) (= (* a__242 a__2) 0) (= (* a__245 a__2) 0) (= (* a__249 a__2) 0) (= (* a__254 a__2) 0) (= (* a__259 a__2) 0) (= (* a__264 a__2) 0) (= (* a__269 a__2) 0) (= (* a__274 a__2) 0) (= (* a__279 a__2) 0) (= (* a__282 a__2) 0) (= (* a__285 a__2) 0) (= (* a__289 a__2) 0) (= (* a__292 a__2) 0) (= (* a__295 a__2) 0) (= (* a__298 a__2) 0) (= (* a__302 a__2) 0) (= (* a__306 a__2) 0) (= (* a__310 a__2) 0) (= (* a__314 a__2) 0) (= (* a__316 a__2) 0) (= (* a__320 a__2) 0) (= (* a__324 a__2) 0) (= (* a__328 a__2) 0) (= (* a__332 a__2) 0) (= (* a__335 a__2) 0) (= (* a__337 a__2) 0) (= (* a__341 a__2) 0) (= (* a__345 a__2) 0) (= (* a__349 a__2) 0) (= (* a__353 a__2) 0) (= (* a__356 a__2) 0) (= (* a__358 a__2) 0) (= (* a__361 a__2) 0) (= (* a__364 a__2) 0) (= (* a__366 a__2) 0) (= (* a__369 a__2) 0) (= (* a__372 a__2) 0) (= (* a__374 a__2) 0) (= (* a__377 a__2) 0) (= (* a__380 a__2) 0) (= (* a__382 a__2) 0) (= (* a__385 a__2) 0))) (>= a__4 0) (>= a__2 0) (>= a__8 0) (>= a__12 0) (>= a__16 0) (>= a__20 0) (>= a__23 0) (>= a__25 0) (>= a__29 0) (>= a__33 0) (>= a__36 0) (>= a__38 0) (>= a__42 0) (>= a__45 0) (>= a__47 0) (>= a__51 0) (>= a__53 0) (>= a__55 0) (>= a__56 0) (>= a__58 0) (>= a__60 0) (>= a__62 0) (>= a__64 0) (>= a__67 0) (>= a__69 0) (>= a__72 0) (>= a__75 0) (>= a__77 0) (>= a__80 0) (>= a__83 0) (>= a__85 0) (>= a__89 0) (>= a__93 0) (>= a__97 0) (>= a__101 0) (>= a__104 0) (>= a__106 0) (>= a__110 0) (>= a__114 0) (>= a__116 0) (>= a__120 0) (>= a__122 0) (>= a__125 0) (>= a__128 0) (>= a__130 0) (>= a__134 0) (>= a__138 0) (>= a__142 0) (>= a__146 0) (>= a__149 0) (>= a__151 0) (>= a__155 0) (>= a__159 0) (>= a__163 0) (>= a__167 0) (>= a__170 0) (>= a__172 0) (>= a__175 0) (>= a__177 0) (>= a__180 0) (>= a__182 0) (>= a__185 0) (>= a__188 0) (>= a__191 0) (>= a__193 0) (>= a__195 0) (>= a__199 0) (>= a__203 0) (>= a__207 0) (>= a__211 0) (>= a__213 0) (>= a__214 0) (>= a__216 0) (>= a__220 0) (>= a__223 0) (>= a__226 0) (>= a__229 0) (>= a__233 0) (>= a__237 0) (>= a__240 0) (>= a__243 0) (>= a__244 0) (>= a__246 0) (>= a__250 0) (>= a__255 0) (>= a__260 0) (>= a__265 0) (>= a__270 0) (>= a__275 0) (>= a__280 0) (>= a__283 0) (>= a__286 0) (>= a__290 0) (>= a__293 0) (>= a__296 0) (>= a__299 0) (>= a__303 0) (>= a__307 0) (>= a__311 0) (>= a__315 0) (>= a__317 0) (>= a__321 0) (>= a__325 0) (>= a__329 0) (>= a__333 0) (>= a__336 0) (>= a__338 0) (>= a__342 0) (>= a__346 0) (>= a__350 0) (>= a__354 0) (>= a__357 0) (>= a__359 0) (>= a__362 0) (>= a__365 0) (>= a__367 0) (>= a__370 0) (>= a__373 0) (>= a__375 0) (>= a__378 0) (>= a__381 0) (>= a__383 0) (>= a__386 0) (>= a__3 0) (>= a__7 0) (>= a__11 0) (>= a__15 0) (>= a__19 0) (>= a__22 0) (>= a__24 0) (>= a__28 0) (>= a__32 0) (>= a__35 0) (>= a__37 0) (>= a__41 0) (>= a__44 0) (>= a__46 0) (>= a__50 0) (>= a__52 0) (>= a__54 0) (>= a__57 0) (>= a__59 0) (>= a__61 0) (>= a__63 0) (>= a__66 0) (>= a__68 0) (>= a__71 0) (>= a__74 0) (>= a__76 0) (>= a__79 0) (>= a__82 0) (>= a__84 0) (>= a__88 0) (>= a__92 0) (>= a__96 0) (>= a__100 0) (>= a__103 0) (>= a__105 0) (>= a__109 0) (>= a__113 0) (>= a__115 0) (>= a__119 0) (>= a__121 0) (>= a__124 0) (>= a__127 0) (>= a__129 0) (>= a__133 0) (>= a__137 0) (>= a__141 0) (>= a__145 0) (>= a__148 0) (>= a__150 0) (>= a__154 0) (>= a__158 0) (>= a__162 0) (>= a__166 0) (>= a__169 0) (>= a__171 0) (>= a__174 0) (>= a__176 0) (>= a__179 0) (>= a__181 0) (>= a__184 0) (>= a__187 0) (>= a__190 0) (>= a__192 0) (>= a__194 0) (>= a__198 0) (>= a__202 0) (>= a__206 0) (>= a__210 0) (>= a__212 0) (>= a__215 0) (>= a__219 0) (>= a__222 0) (>= a__225 0) (>= a__228 0) (>= a__232 0) (>= a__236 0) (>= a__239 0) (>= a__242 0) (>= a__245 0) (>= a__249 0) (>= a__254 0) (>= a__259 0) (>= a__264 0) (>= a__269 0) (>= a__274 0) (>= a__279 0) (>= a__282 0) (>= a__285 0) (>= a__289 0) (>= a__292 0) (>= a__295 0) (>= a__298 0) (>= a__302 0) (>= a__306 0) (>= a__310 0) (>= a__314 0) (>= a__316 0) (>= a__320 0) (>= a__324 0) (>= a__328 0) (>= a__332 0) (>= a__335 0) (>= a__337 0) (>= a__341 0) (>= a__345 0) (>= a__349 0) (>= a__353 0) (>= a__356 0) (>= a__358 0) (>= a__361 0) (>= a__364 0) (>= a__366 0) (>= a__369 0) (>= a__372 0) (>= a__374 0) (>= a__377 0) (>= a__380 0) (>= a__382 0) (>= a__385 0)))
(check-sat)
;;(get-assignment)
;;(get-model)
(exit)
